2 30
717 680 
0 95 85 72 3 40 82 1
1 64 1 72 36 61 26 1
2 97 39 98 10 38 14 1
3 77 92 54 39 20 71 2
4 75 53 43 4 8 97 1
5 66 63 75 17 37 22 1
6 91 78 47 5 29 7 1
7 49 89 81 27 53 77 1
8 48 70 100 37 65 74 1
9 52 55 20 10 27 24 1
10 72 41 65 87 82 3 2
11 20 28 93 39 53 55 2
12 24 93 85 36 66 28 1
13 87 33 28 80 100 21 1
14 44 78 9 12 48 6 2
15 73 26 18 40 31 27 1
16 75 2 28 89 32 51 2
17 7 21 44 16 31 38 2
18 88 86 24 9 14 9 2
19 99 3 87 70 30 16 2
20 71 62 67 69 21 67 2
21 68 81 21 47 66 81 2
22 5 49 58 100 56 81 1
23 33 24 18 98 97 75 2
24 94 58 39 76 55 77 2
25 92 41 56 56 92 87 1
26 49 19 78 54 69 66 1
27 85 25 53 63 81 45 1
28 27 23 32 45 87 68 2
29 26 16 34 87 2 4 2
